c A SAT instance generated from a 3-CNF formula that had 24 clauses and 12 variables
p cnf 12 24
9 11 -6 0
6 -12 -1 0
-4 -12 11 0
-2 11 9 0
-5 11 4 0
6 2 -5 0
3 1 -10 0
-11 -3 -10 0
-11 6 3 0
-4 -8 -9 0
-1 4 7 0
-9 -3 -6 0
-7 -2 11 0
5 -7 11 0
-3 -8 5 0
-5 3 2 0
2 -7 -4 0
-7 -12 2 0
-7 -5 4 0
6 -4 -12 0
-8 12 -1 0
-11 -6 -7 0
-9 11 4 0
-7 -4 -11 0
